language Essence 1.3

letting bot_end be [38, 657, 119, 721, 239, 784, 792, 82, 87, 185, 702, 151, 709, 174, 687, 769, 59; int(1..17)]
letting bot_start be [788, 161, 648, 238, 750, 309, 15, 568, 742, 785, 134, 696, 117, 640, 197, 37, 608; int(1..17)]
letting buffer_col be 2
letting buffer_row be 2
letting corridor_size be 2
letting n_shelves_col be 1
letting n_shelves_row be 32
letting shelf_col_size be 2
letting shelf_row_size be 1
